(set-info :category "industrial")
(set-info :status sat)
(declare-fun x00 () (_ BitVec 8))
(declare-fun x02 () (_ BitVec 8))
(declare-fun x03 () (_ BitVec 8))
(declare-fun x05 () (_ BitVec 8))
(declare-fun x08 () (_ BitVec 8))
(declare-fun x10 () (_ BitVec 8))
(declare-fun x11 () (_ BitVec 8))
(declare-fun x14 () (_ BitVec 8))
(declare-fun x15 () (_ BitVec 8))
(declare-fun x17 () (_ BitVec 8))
(declare-fun x20 () (_ BitVec 8))
(declare-fun x22 () (_ BitVec 8))
(declare-fun x23 () (_ BitVec 8))
(declare-fun x24 () (_ BitVec 8))
(declare-fun x26 () (_ BitVec 8))
(declare-fun x27 () (_ BitVec 8))
(declare-fun x30 () (_ BitVec 8))
(declare-fun x32 () (_ BitVec 8))
(declare-fun x34 () (_ BitVec 8))
(declare-fun x37 () (_ BitVec 8))
(declare-fun x38 () (_ BitVec 8))
(declare-fun x41 () (_ BitVec 8))
(declare-fun x44 () (_ BitVec 8))
(declare-fun x45 () (_ BitVec 8))
(declare-fun x47 () (_ BitVec 8))
(declare-fun x48 () (_ BitVec 8))
(declare-fun x50 () (_ BitVec 8))
(declare-fun x52 () (_ BitVec 8))
(declare-fun x53 () (_ BitVec 8))
(declare-fun x55 () (_ BitVec 8))
(declare-fun x56 () (_ BitVec 8))
(declare-fun x58 () (_ BitVec 8))
(declare-fun x60 () (_ BitVec 8))
(declare-fun x63 () (_ BitVec 8))
(declare-fun x67 () (_ BitVec 8))
(declare-fun x68 () (_ BitVec 8))
(declare-fun x71 () (_ BitVec 8))
(declare-fun x72 () (_ BitVec 8))
(declare-fun x74 () (_ BitVec 8))
(declare-fun x75 () (_ BitVec 8))
(declare-fun x76 () (_ BitVec 8))
(declare-fun x81 () (_ BitVec 8))
(declare-fun x82 () (_ BitVec 8))
(declare-fun x83 () (_ BitVec 8))
(declare-fun x87 () (_ BitVec 8))
(declare-fun x88 () (_ BitVec 8))
(assert (bvult x00 (_ bv9 8)))
(assert (bvult x02 (_ bv9 8)))
(assert (bvult x03 (_ bv9 8)))
(assert (bvult x05 (_ bv9 8)))
(assert (bvult x08 (_ bv9 8)))
(assert (bvult x10 (_ bv9 8)))
(assert (bvult x11 (_ bv9 8)))
(assert (bvult x14 (_ bv9 8)))
(assert (bvult x15 (_ bv9 8)))
(assert (bvult x17 (_ bv9 8)))
(assert (bvult x20 (_ bv9 8)))
(assert (bvult x22 (_ bv9 8)))
(assert (bvult x23 (_ bv9 8)))
(assert (bvult x24 (_ bv9 8)))
(assert (bvult x26 (_ bv9 8)))
(assert (bvult x27 (_ bv9 8)))
(assert (bvult x30 (_ bv9 8)))
(assert (bvult x32 (_ bv9 8)))
(assert (bvult x34 (_ bv9 8)))
(assert (bvult x37 (_ bv9 8)))
(assert (bvult x38 (_ bv9 8)))
(assert (bvult x41 (_ bv9 8)))
(assert (bvult x44 (_ bv9 8)))
(assert (bvult x45 (_ bv9 8)))
(assert (bvult x47 (_ bv9 8)))
(assert (bvult x48 (_ bv9 8)))
(assert (bvult x50 (_ bv9 8)))
(assert (bvult x52 (_ bv9 8)))
(assert (bvult x53 (_ bv9 8)))
(assert (bvult x55 (_ bv9 8)))
(assert (bvult x56 (_ bv9 8)))
(assert (bvult x58 (_ bv9 8)))
(assert (bvult x60 (_ bv9 8)))
(assert (bvult x63 (_ bv9 8)))
(assert (bvult x67 (_ bv9 8)))
(assert (bvult x68 (_ bv9 8)))
(assert (bvult x71 (_ bv9 8)))
(assert (bvult x72 (_ bv9 8)))
(assert (bvult x74 (_ bv9 8)))
(assert (bvult x75 (_ bv9 8)))
(assert (bvult x76 (_ bv9 8)))
(assert (bvult x81 (_ bv9 8)))
(assert (bvult x82 (_ bv9 8)))
(assert (bvult x83 (_ bv9 8)))
(assert (bvult x87 (_ bv9 8)))
(assert (bvult x88 (_ bv9 8)))
(assert (not (= x00 (_ bv6 8))))
(assert (not (= x00 x02)))
(assert (not (= x00 x03)))
(assert (not (= x00 (_ bv9 8))))
(assert (not (= x00 x05)))
(assert (not (= x00 (_ bv5 8))))
(assert (not (= x00 (_ bv1 8))))
(assert (not (= x00 x08)))
(assert (not (= (_ bv6 8) x02)))
(assert (not (= (_ bv6 8) x03)))
(assert (not (= (_ bv6 8) (_ bv9 8))))
(assert (not (= (_ bv6 8) x05)))
(assert (not (= (_ bv6 8) (_ bv5 8))))
(assert (not (= (_ bv6 8) (_ bv1 8))))
(assert (not (= (_ bv6 8) x08)))
(assert (not (= x02 x03)))
(assert (not (= x02 (_ bv9 8))))
(assert (not (= x02 x05)))
(assert (not (= x02 (_ bv5 8))))
(assert (not (= x02 (_ bv1 8))))
(assert (not (= x02 x08)))
(assert (not (= x03 (_ bv9 8))))
(assert (not (= x03 x05)))
(assert (not (= x03 (_ bv5 8))))
(assert (not (= x03 (_ bv1 8))))
(assert (not (= x03 x08)))
(assert (not (= (_ bv9 8) x05)))
(assert (not (= (_ bv9 8) (_ bv5 8))))
(assert (not (= (_ bv9 8) (_ bv1 8))))
(assert (not (= (_ bv9 8) x08)))
(assert (not (= x05 (_ bv5 8))))
(assert (not (= x05 (_ bv1 8))))
(assert (not (= x05 x08)))
(assert (not (= (_ bv5 8) (_ bv1 8))))
(assert (not (= (_ bv5 8) x08)))
(assert (not (= (_ bv1 8) x08)))
(assert (not (= x10 x11)))
(assert (not (= x10 (_ bv5 8))))
(assert (not (= x10 (_ bv3 8))))
(assert (not (= x10 x14)))
(assert (not (= x10 x15)))
(assert (not (= x10 (_ bv7 8))))
(assert (not (= x10 x17)))
(assert (not (= x10 (_ bv8 8))))
(assert (not (= x11 (_ bv5 8))))
(assert (not (= x11 (_ bv3 8))))
(assert (not (= x11 x14)))
(assert (not (= x11 x15)))
(assert (not (= x11 (_ bv7 8))))
(assert (not (= x11 x17)))
(assert (not (= x11 (_ bv8 8))))
(assert (not (= (_ bv5 8) (_ bv3 8))))
(assert (not (= (_ bv5 8) x14)))
(assert (not (= (_ bv5 8) x15)))
(assert (not (= (_ bv5 8) (_ bv7 8))))
(assert (not (= (_ bv5 8) x17)))
(assert (not (= (_ bv5 8) (_ bv8 8))))
(assert (not (= (_ bv3 8) x14)))
(assert (not (= (_ bv3 8) x15)))
(assert (not (= (_ bv3 8) (_ bv7 8))))
(assert (not (= (_ bv3 8) x17)))
(assert (not (= (_ bv3 8) (_ bv8 8))))
(assert (not (= x14 x15)))
(assert (not (= x14 (_ bv7 8))))
(assert (not (= x14 x17)))
(assert (not (= x14 (_ bv8 8))))
(assert (not (= x15 (_ bv7 8))))
(assert (not (= x15 x17)))
(assert (not (= x15 (_ bv8 8))))
(assert (not (= (_ bv7 8) x17)))
(assert (not (= (_ bv7 8) (_ bv8 8))))
(assert (not (= x17 (_ bv8 8))))
(assert (not (= x20 (_ bv3 8))))
(assert (not (= x20 x22)))
(assert (not (= x20 x23)))
(assert (not (= x20 x24)))
(assert (not (= x20 (_ bv7 8))))
(assert (not (= x20 x26)))
(assert (not (= x20 x27)))
(assert (not (= x20 (_ bv2 8))))
(assert (not (= (_ bv3 8) x22)))
(assert (not (= (_ bv3 8) x23)))
(assert (not (= (_ bv3 8) x24)))
(assert (not (= (_ bv3 8) (_ bv7 8))))
(assert (not (= (_ bv3 8) x26)))
(assert (not (= (_ bv3 8) x27)))
(assert (not (= (_ bv3 8) (_ bv2 8))))
(assert (not (= x22 x23)))
(assert (not (= x22 x24)))
(assert (not (= x22 (_ bv7 8))))
(assert (not (= x22 x26)))
(assert (not (= x22 x27)))
(assert (not (= x22 (_ bv2 8))))
(assert (not (= x23 x24)))
(assert (not (= x23 (_ bv7 8))))
(assert (not (= x23 x26)))
(assert (not (= x23 x27)))
(assert (not (= x23 (_ bv2 8))))
(assert (not (= x24 (_ bv7 8))))
(assert (not (= x24 x26)))
(assert (not (= x24 x27)))
(assert (not (= x24 (_ bv2 8))))
(assert (not (= (_ bv7 8) x26)))
(assert (not (= (_ bv7 8) x27)))
(assert (not (= (_ bv7 8) (_ bv2 8))))
(assert (not (= x26 x27)))
(assert (not (= x26 (_ bv2 8))))
(assert (not (= x27 (_ bv2 8))))
(assert (not (= x30 (_ bv4 8))))
(assert (not (= x30 x32)))
(assert (not (= x30 (_ bv8 8))))
(assert (not (= x30 x34)))
(assert (not (= x30 (_ bv5 8))))
(assert (not (= x30 (_ bv1 8))))
(assert (not (= x30 x37)))
(assert (not (= x30 x38)))
(assert (not (= (_ bv4 8) x32)))
(assert (not (= (_ bv4 8) (_ bv8 8))))
(assert (not (= (_ bv4 8) x34)))
(assert (not (= (_ bv4 8) (_ bv5 8))))
(assert (not (= (_ bv4 8) (_ bv1 8))))
(assert (not (= (_ bv4 8) x37)))
(assert (not (= (_ bv4 8) x38)))
(assert (not (= x32 (_ bv8 8))))
(assert (not (= x32 x34)))
(assert (not (= x32 (_ bv5 8))))
(assert (not (= x32 (_ bv1 8))))
(assert (not (= x32 x37)))
(assert (not (= x32 x38)))
(assert (not (= (_ bv8 8) x34)))
(assert (not (= (_ bv8 8) (_ bv5 8))))
(assert (not (= (_ bv8 8) (_ bv1 8))))
(assert (not (= (_ bv8 8) x37)))
(assert (not (= (_ bv8 8) x38)))
(assert (not (= x34 (_ bv5 8))))
(assert (not (= x34 (_ bv1 8))))
(assert (not (= x34 x37)))
(assert (not (= x34 x38)))
(assert (not (= (_ bv5 8) (_ bv1 8))))
(assert (not (= (_ bv5 8) x37)))
(assert (not (= (_ bv5 8) x38)))
(assert (not (= (_ bv1 8) x37)))
(assert (not (= (_ bv1 8) x38)))
(assert (not (= x37 x38)))
(assert (not (= (_ bv7 8) x41)))
(assert (not (= (_ bv7 8) (_ bv1 8))))
(assert (not (= (_ bv7 8) (_ bv6 8))))
(assert (not (= (_ bv7 8) x44)))
(assert (not (= (_ bv7 8) x45)))
(assert (not (= (_ bv7 8) (_ bv2 8))))
(assert (not (= (_ bv7 8) x47)))
(assert (not (= (_ bv7 8) x48)))
(assert (not (= x41 (_ bv1 8))))
(assert (not (= x41 (_ bv6 8))))
(assert (not (= x41 x44)))
(assert (not (= x41 x45)))
(assert (not (= x41 (_ bv2 8))))
(assert (not (= x41 x47)))
(assert (not (= x41 x48)))
(assert (not (= (_ bv1 8) (_ bv6 8))))
(assert (not (= (_ bv1 8) x44)))
(assert (not (= (_ bv1 8) x45)))
(assert (not (= (_ bv1 8) (_ bv2 8))))
(assert (not (= (_ bv1 8) x47)))
(assert (not (= (_ bv1 8) x48)))
(assert (not (= (_ bv6 8) x44)))
(assert (not (= (_ bv6 8) x45)))
(assert (not (= (_ bv6 8) (_ bv2 8))))
(assert (not (= (_ bv6 8) x47)))
(assert (not (= (_ bv6 8) x48)))
(assert (not (= x44 x45)))
(assert (not (= x44 (_ bv2 8))))
(assert (not (= x44 x47)))
(assert (not (= x44 x48)))
(assert (not (= x45 (_ bv2 8))))
(assert (not (= x45 x47)))
(assert (not (= x45 x48)))
(assert (not (= (_ bv2 8) x47)))
(assert (not (= (_ bv2 8) x48)))
(assert (not (= x47 x48)))
(assert (not (= x50 (_ bv9 8))))
(assert (not (= x50 x52)))
(assert (not (= x50 x53)))
(assert (not (= x50 (_ bv4 8))))
(assert (not (= x50 x55)))
(assert (not (= x50 x56)))
(assert (not (= x50 (_ bv3 8))))
(assert (not (= x50 x58)))
(assert (not (= (_ bv9 8) x52)))
(assert (not (= (_ bv9 8) x53)))
(assert (not (= (_ bv9 8) (_ bv4 8))))
(assert (not (= (_ bv9 8) x55)))
(assert (not (= (_ bv9 8) x56)))
(assert (not (= (_ bv9 8) (_ bv3 8))))
(assert (not (= (_ bv9 8) x58)))
(assert (not (= x52 x53)))
(assert (not (= x52 (_ bv4 8))))
(assert (not (= x52 x55)))
(assert (not (= x52 x56)))
(assert (not (= x52 (_ bv3 8))))
(assert (not (= x52 x58)))
(assert (not (= x53 (_ bv4 8))))
(assert (not (= x53 x55)))
(assert (not (= x53 x56)))
(assert (not (= x53 (_ bv3 8))))
(assert (not (= x53 x58)))
(assert (not (= (_ bv4 8) x55)))
(assert (not (= (_ bv4 8) x56)))
(assert (not (= (_ bv4 8) (_ bv3 8))))
(assert (not (= (_ bv4 8) x58)))
(assert (not (= x55 x56)))
(assert (not (= x55 (_ bv3 8))))
(assert (not (= x55 x58)))
(assert (not (= x56 (_ bv3 8))))
(assert (not (= x56 x58)))
(assert (not (= (_ bv3 8) x58)))
(assert (not (= x60 (_ bv5 8))))
(assert (not (= x60 (_ bv4 8))))
(assert (not (= x60 x63)))
(assert (not (= x60 (_ bv7 8))))
(assert (not (= x60 (_ bv3 8))))
(assert (not (= x60 (_ bv6 8))))
(assert (not (= x60 x67)))
(assert (not (= x60 x68)))
(assert (not (= (_ bv5 8) (_ bv4 8))))
(assert (not (= (_ bv5 8) x63)))
(assert (not (= (_ bv5 8) (_ bv7 8))))
(assert (not (= (_ bv5 8) (_ bv3 8))))
(assert (not (= (_ bv5 8) (_ bv6 8))))
(assert (not (= (_ bv5 8) x67)))
(assert (not (= (_ bv5 8) x68)))
(assert (not (= (_ bv4 8) x63)))
(assert (not (= (_ bv4 8) (_ bv7 8))))
(assert (not (= (_ bv4 8) (_ bv3 8))))
(assert (not (= (_ bv4 8) (_ bv6 8))))
(assert (not (= (_ bv4 8) x67)))
(assert (not (= (_ bv4 8) x68)))
(assert (not (= x63 (_ bv7 8))))
(assert (not (= x63 (_ bv3 8))))
(assert (not (= x63 (_ bv6 8))))
(assert (not (= x63 x67)))
(assert (not (= x63 x68)))
(assert (not (= (_ bv7 8) (_ bv3 8))))
(assert (not (= (_ bv7 8) (_ bv6 8))))
(assert (not (= (_ bv7 8) x67)))
(assert (not (= (_ bv7 8) x68)))
(assert (not (= (_ bv3 8) (_ bv6 8))))
(assert (not (= (_ bv3 8) x67)))
(assert (not (= (_ bv3 8) x68)))
(assert (not (= (_ bv6 8) x67)))
(assert (not (= (_ bv6 8) x68)))
(assert (not (= x67 x68)))
(assert (not (= (_ bv2 8) x71)))
(assert (not (= (_ bv2 8) x72)))
(assert (not (= (_ bv2 8) (_ bv1 8))))
(assert (not (= (_ bv2 8) x74)))
(assert (not (= (_ bv2 8) x75)))
(assert (not (= (_ bv2 8) x76)))
(assert (not (= (_ bv2 8) (_ bv9 8))))
(assert (not (= (_ bv2 8) (_ bv5 8))))
(assert (not (= x71 x72)))
(assert (not (= x71 (_ bv1 8))))
(assert (not (= x71 x74)))
(assert (not (= x71 x75)))
(assert (not (= x71 x76)))
(assert (not (= x71 (_ bv9 8))))
(assert (not (= x71 (_ bv5 8))))
(assert (not (= x72 (_ bv1 8))))
(assert (not (= x72 x74)))
(assert (not (= x72 x75)))
(assert (not (= x72 x76)))
(assert (not (= x72 (_ bv9 8))))
(assert (not (= x72 (_ bv5 8))))
(assert (not (= (_ bv1 8) x74)))
(assert (not (= (_ bv1 8) x75)))
(assert (not (= (_ bv1 8) x76)))
(assert (not (= (_ bv1 8) (_ bv9 8))))
(assert (not (= (_ bv1 8) (_ bv5 8))))
(assert (not (= x74 x75)))
(assert (not (= x74 x76)))
(assert (not (= x74 (_ bv9 8))))
(assert (not (= x74 (_ bv5 8))))
(assert (not (= x75 x76)))
(assert (not (= x75 (_ bv9 8))))
(assert (not (= x75 (_ bv5 8))))
(assert (not (= x76 (_ bv9 8))))
(assert (not (= x76 (_ bv5 8))))
(assert (not (= (_ bv9 8) (_ bv5 8))))
(assert (not (= (_ bv3 8) x81)))
(assert (not (= (_ bv3 8) x82)))
(assert (not (= (_ bv3 8) x83)))
(assert (not (= (_ bv3 8) (_ bv6 8))))
(assert (not (= (_ bv3 8) (_ bv2 8))))
(assert (not (= (_ bv3 8) (_ bv4 8))))
(assert (not (= (_ bv3 8) x87)))
(assert (not (= (_ bv3 8) x88)))
(assert (not (= x81 x82)))
(assert (not (= x81 x83)))
(assert (not (= x81 (_ bv6 8))))
(assert (not (= x81 (_ bv2 8))))
(assert (not (= x81 (_ bv4 8))))
(assert (not (= x81 x87)))
(assert (not (= x81 x88)))
(assert (not (= x82 x83)))
(assert (not (= x82 (_ bv6 8))))
(assert (not (= x82 (_ bv2 8))))
(assert (not (= x82 (_ bv4 8))))
(assert (not (= x82 x87)))
(assert (not (= x82 x88)))
(assert (not (= x83 (_ bv6 8))))
(assert (not (= x83 (_ bv2 8))))
(assert (not (= x83 (_ bv4 8))))
(assert (not (= x83 x87)))
(assert (not (= x83 x88)))
(assert (not (= (_ bv6 8) (_ bv2 8))))
(assert (not (= (_ bv6 8) (_ bv4 8))))
(assert (not (= (_ bv6 8) x87)))
(assert (not (= (_ bv6 8) x88)))
(assert (not (= (_ bv2 8) (_ bv4 8))))
(assert (not (= (_ bv2 8) x87)))
(assert (not (= (_ bv2 8) x88)))
(assert (not (= (_ bv4 8) x87)))
(assert (not (= (_ bv4 8) x88)))
(assert (not (= x87 x88)))
(assert (not (= x00 x10)))
(assert (not (= x00 x20)))
(assert (not (= x00 x30)))
(assert (not (= x00 (_ bv7 8))))
(assert (not (= x00 x50)))
(assert (not (= x00 x60)))
(assert (not (= x00 (_ bv2 8))))
(assert (not (= x00 (_ bv3 8))))
(assert (not (= x10 x20)))
(assert (not (= x10 x30)))
(assert (not (= x10 (_ bv7 8))))
(assert (not (= x10 x50)))
(assert (not (= x10 x60)))
(assert (not (= x10 (_ bv2 8))))
(assert (not (= x10 (_ bv3 8))))
(assert (not (= x20 x30)))
(assert (not (= x20 (_ bv7 8))))
(assert (not (= x20 x50)))
(assert (not (= x20 x60)))
(assert (not (= x20 (_ bv2 8))))
(assert (not (= x20 (_ bv3 8))))
(assert (not (= x30 (_ bv7 8))))
(assert (not (= x30 x50)))
(assert (not (= x30 x60)))
(assert (not (= x30 (_ bv2 8))))
(assert (not (= x30 (_ bv3 8))))
(assert (not (= (_ bv7 8) x50)))
(assert (not (= (_ bv7 8) x60)))
(assert (not (= (_ bv7 8) (_ bv2 8))))
(assert (not (= (_ bv7 8) (_ bv3 8))))
(assert (not (= x50 x60)))
(assert (not (= x50 (_ bv2 8))))
(assert (not (= x50 (_ bv3 8))))
(assert (not (= x60 (_ bv2 8))))
(assert (not (= x60 (_ bv3 8))))
(assert (not (= (_ bv2 8) (_ bv3 8))))
(assert (not (= (_ bv6 8) x11)))
(assert (not (= (_ bv6 8) (_ bv3 8))))
(assert (not (= (_ bv6 8) (_ bv4 8))))
(assert (not (= (_ bv6 8) x41)))
(assert (not (= (_ bv6 8) (_ bv9 8))))
(assert (not (= (_ bv6 8) (_ bv5 8))))
(assert (not (= (_ bv6 8) x71)))
(assert (not (= (_ bv6 8) x81)))
(assert (not (= x11 (_ bv3 8))))
(assert (not (= x11 (_ bv4 8))))
(assert (not (= x11 x41)))
(assert (not (= x11 (_ bv9 8))))
(assert (not (= x11 (_ bv5 8))))
(assert (not (= x11 x71)))
(assert (not (= x11 x81)))
(assert (not (= (_ bv3 8) (_ bv4 8))))
(assert (not (= (_ bv3 8) x41)))
(assert (not (= (_ bv3 8) (_ bv9 8))))
(assert (not (= (_ bv3 8) (_ bv5 8))))
(assert (not (= (_ bv3 8) x71)))
(assert (not (= (_ bv3 8) x81)))
(assert (not (= (_ bv4 8) x41)))
(assert (not (= (_ bv4 8) (_ bv9 8))))
(assert (not (= (_ bv4 8) (_ bv5 8))))
(assert (not (= (_ bv4 8) x71)))
(assert (not (= (_ bv4 8) x81)))
(assert (not (= x41 (_ bv9 8))))
(assert (not (= x41 (_ bv5 8))))
(assert (not (= x41 x71)))
(assert (not (= x41 x81)))
(assert (not (= (_ bv9 8) (_ bv5 8))))
(assert (not (= (_ bv9 8) x71)))
(assert (not (= (_ bv9 8) x81)))
(assert (not (= (_ bv5 8) x71)))
(assert (not (= (_ bv5 8) x81)))
(assert (not (= x71 x81)))
(assert (not (= x02 (_ bv5 8))))
(assert (not (= x02 x22)))
(assert (not (= x02 x32)))
(assert (not (= x02 (_ bv1 8))))
(assert (not (= x02 x52)))
(assert (not (= x02 (_ bv4 8))))
(assert (not (= x02 x72)))
(assert (not (= x02 x82)))
(assert (not (= (_ bv5 8) x22)))
(assert (not (= (_ bv5 8) x32)))
(assert (not (= (_ bv5 8) (_ bv1 8))))
(assert (not (= (_ bv5 8) x52)))
(assert (not (= (_ bv5 8) (_ bv4 8))))
(assert (not (= (_ bv5 8) x72)))
(assert (not (= (_ bv5 8) x82)))
(assert (not (= x22 x32)))
(assert (not (= x22 (_ bv1 8))))
(assert (not (= x22 x52)))
(assert (not (= x22 (_ bv4 8))))
(assert (not (= x22 x72)))
(assert (not (= x22 x82)))
(assert (not (= x32 (_ bv1 8))))
(assert (not (= x32 x52)))
(assert (not (= x32 (_ bv4 8))))
(assert (not (= x32 x72)))
(assert (not (= x32 x82)))
(assert (not (= (_ bv1 8) x52)))
(assert (not (= (_ bv1 8) (_ bv4 8))))
(assert (not (= (_ bv1 8) x72)))
(assert (not (= (_ bv1 8) x82)))
(assert (not (= x52 (_ bv4 8))))
(assert (not (= x52 x72)))
(assert (not (= x52 x82)))
(assert (not (= (_ bv4 8) x72)))
(assert (not (= (_ bv4 8) x82)))
(assert (not (= x72 x82)))
(assert (not (= x03 (_ bv3 8))))
(assert (not (= x03 x23)))
(assert (not (= x03 (_ bv8 8))))
(assert (not (= x03 (_ bv6 8))))
(assert (not (= x03 x53)))
(assert (not (= x03 x63)))
(assert (not (= x03 (_ bv1 8))))
(assert (not (= x03 x83)))
(assert (not (= (_ bv3 8) x23)))
(assert (not (= (_ bv3 8) (_ bv8 8))))
(assert (not (= (_ bv3 8) (_ bv6 8))))
(assert (not (= (_ bv3 8) x53)))
(assert (not (= (_ bv3 8) x63)))
(assert (not (= (_ bv3 8) (_ bv1 8))))
(assert (not (= (_ bv3 8) x83)))
(assert (not (= x23 (_ bv8 8))))
(assert (not (= x23 (_ bv6 8))))
(assert (not (= x23 x53)))
(assert (not (= x23 x63)))
(assert (not (= x23 (_ bv1 8))))
(assert (not (= x23 x83)))
(assert (not (= (_ bv8 8) (_ bv6 8))))
(assert (not (= (_ bv8 8) x53)))
(assert (not (= (_ bv8 8) x63)))
(assert (not (= (_ bv8 8) (_ bv1 8))))
(assert (not (= (_ bv8 8) x83)))
(assert (not (= (_ bv6 8) x53)))
(assert (not (= (_ bv6 8) x63)))
(assert (not (= (_ bv6 8) (_ bv1 8))))
(assert (not (= (_ bv6 8) x83)))
(assert (not (= x53 x63)))
(assert (not (= x53 (_ bv1 8))))
(assert (not (= x53 x83)))
(assert (not (= x63 (_ bv1 8))))
(assert (not (= x63 x83)))
(assert (not (= (_ bv1 8) x83)))
(assert (not (= (_ bv9 8) x14)))
(assert (not (= (_ bv9 8) x24)))
(assert (not (= (_ bv9 8) x34)))
(assert (not (= (_ bv9 8) x44)))
(assert (not (= (_ bv9 8) (_ bv4 8))))
(assert (not (= (_ bv9 8) (_ bv7 8))))
(assert (not (= (_ bv9 8) x74)))
(assert (not (= (_ bv9 8) (_ bv6 8))))
(assert (not (= x14 x24)))
(assert (not (= x14 x34)))
(assert (not (= x14 x44)))
(assert (not (= x14 (_ bv4 8))))
(assert (not (= x14 (_ bv7 8))))
(assert (not (= x14 x74)))
(assert (not (= x14 (_ bv6 8))))
(assert (not (= x24 x34)))
(assert (not (= x24 x44)))
(assert (not (= x24 (_ bv4 8))))
(assert (not (= x24 (_ bv7 8))))
(assert (not (= x24 x74)))
(assert (not (= x24 (_ bv6 8))))
(assert (not (= x34 x44)))
(assert (not (= x34 (_ bv4 8))))
(assert (not (= x34 (_ bv7 8))))
(assert (not (= x34 x74)))
(assert (not (= x34 (_ bv6 8))))
(assert (not (= x44 (_ bv4 8))))
(assert (not (= x44 (_ bv7 8))))
(assert (not (= x44 x74)))
(assert (not (= x44 (_ bv6 8))))
(assert (not (= (_ bv4 8) (_ bv7 8))))
(assert (not (= (_ bv4 8) x74)))
(assert (not (= (_ bv4 8) (_ bv6 8))))
(assert (not (= (_ bv7 8) x74)))
(assert (not (= (_ bv7 8) (_ bv6 8))))
(assert (not (= x74 (_ bv6 8))))
(assert (not (= x05 x15)))
(assert (not (= x05 (_ bv7 8))))
(assert (not (= x05 (_ bv5 8))))
(assert (not (= x05 x45)))
(assert (not (= x05 x55)))
(assert (not (= x05 (_ bv3 8))))
(assert (not (= x05 x75)))
(assert (not (= x05 (_ bv2 8))))
(assert (not (= x15 (_ bv7 8))))
(assert (not (= x15 (_ bv5 8))))
(assert (not (= x15 x45)))
(assert (not (= x15 x55)))
(assert (not (= x15 (_ bv3 8))))
(assert (not (= x15 x75)))
(assert (not (= x15 (_ bv2 8))))
(assert (not (= (_ bv7 8) (_ bv5 8))))
(assert (not (= (_ bv7 8) x45)))
(assert (not (= (_ bv7 8) x55)))
(assert (not (= (_ bv7 8) (_ bv3 8))))
(assert (not (= (_ bv7 8) x75)))
(assert (not (= (_ bv7 8) (_ bv2 8))))
(assert (not (= (_ bv5 8) x45)))
(assert (not (= (_ bv5 8) x55)))
(assert (not (= (_ bv5 8) (_ bv3 8))))
(assert (not (= (_ bv5 8) x75)))
(assert (not (= (_ bv5 8) (_ bv2 8))))
(assert (not (= x45 x55)))
(assert (not (= x45 (_ bv3 8))))
(assert (not (= x45 x75)))
(assert (not (= x45 (_ bv2 8))))
(assert (not (= x55 (_ bv3 8))))
(assert (not (= x55 x75)))
(assert (not (= x55 (_ bv2 8))))
(assert (not (= (_ bv3 8) x75)))
(assert (not (= (_ bv3 8) (_ bv2 8))))
(assert (not (= x75 (_ bv2 8))))
(assert (not (= (_ bv5 8) (_ bv7 8))))
(assert (not (= (_ bv5 8) x26)))
(assert (not (= (_ bv5 8) (_ bv1 8))))
(assert (not (= (_ bv5 8) (_ bv2 8))))
(assert (not (= (_ bv5 8) x56)))
(assert (not (= (_ bv5 8) (_ bv6 8))))
(assert (not (= (_ bv5 8) x76)))
(assert (not (= (_ bv5 8) (_ bv4 8))))
(assert (not (= (_ bv7 8) x26)))
(assert (not (= (_ bv7 8) (_ bv1 8))))
(assert (not (= (_ bv7 8) (_ bv2 8))))
(assert (not (= (_ bv7 8) x56)))
(assert (not (= (_ bv7 8) (_ bv6 8))))
(assert (not (= (_ bv7 8) x76)))
(assert (not (= (_ bv7 8) (_ bv4 8))))
(assert (not (= x26 (_ bv1 8))))
(assert (not (= x26 (_ bv2 8))))
(assert (not (= x26 x56)))
(assert (not (= x26 (_ bv6 8))))
(assert (not (= x26 x76)))
(assert (not (= x26 (_ bv4 8))))
(assert (not (= (_ bv1 8) (_ bv2 8))))
(assert (not (= (_ bv1 8) x56)))
(assert (not (= (_ bv1 8) (_ bv6 8))))
(assert (not (= (_ bv1 8) x76)))
(assert (not (= (_ bv1 8) (_ bv4 8))))
(assert (not (= (_ bv2 8) x56)))
(assert (not (= (_ bv2 8) (_ bv6 8))))
(assert (not (= (_ bv2 8) x76)))
(assert (not (= (_ bv2 8) (_ bv4 8))))
(assert (not (= x56 (_ bv6 8))))
(assert (not (= x56 x76)))
(assert (not (= x56 (_ bv4 8))))
(assert (not (= (_ bv6 8) x76)))
(assert (not (= (_ bv6 8) (_ bv4 8))))
(assert (not (= x76 (_ bv4 8))))
(assert (not (= (_ bv1 8) x17)))
(assert (not (= (_ bv1 8) x27)))
(assert (not (= (_ bv1 8) x37)))
(assert (not (= (_ bv1 8) x47)))
(assert (not (= (_ bv1 8) (_ bv3 8))))
(assert (not (= (_ bv1 8) x67)))
(assert (not (= (_ bv1 8) (_ bv9 8))))
(assert (not (= (_ bv1 8) x87)))
(assert (not (= x17 x27)))
(assert (not (= x17 x37)))
(assert (not (= x17 x47)))
(assert (not (= x17 (_ bv3 8))))
(assert (not (= x17 x67)))
(assert (not (= x17 (_ bv9 8))))
(assert (not (= x17 x87)))
(assert (not (= x27 x37)))
(assert (not (= x27 x47)))
(assert (not (= x27 (_ bv3 8))))
(assert (not (= x27 x67)))
(assert (not (= x27 (_ bv9 8))))
(assert (not (= x27 x87)))
(assert (not (= x37 x47)))
(assert (not (= x37 (_ bv3 8))))
(assert (not (= x37 x67)))
(assert (not (= x37 (_ bv9 8))))
(assert (not (= x37 x87)))
(assert (not (= x47 (_ bv3 8))))
(assert (not (= x47 x67)))
(assert (not (= x47 (_ bv9 8))))
(assert (not (= x47 x87)))
(assert (not (= (_ bv3 8) x67)))
(assert (not (= (_ bv3 8) (_ bv9 8))))
(assert (not (= (_ bv3 8) x87)))
(assert (not (= x67 (_ bv9 8))))
(assert (not (= x67 x87)))
(assert (not (= (_ bv9 8) x87)))
(assert (not (= x08 (_ bv8 8))))
(assert (not (= x08 (_ bv2 8))))
(assert (not (= x08 x38)))
(assert (not (= x08 x48)))
(assert (not (= x08 x58)))
(assert (not (= x08 x68)))
(assert (not (= x08 (_ bv5 8))))
(assert (not (= x08 x88)))
(assert (not (= (_ bv8 8) (_ bv2 8))))
(assert (not (= (_ bv8 8) x38)))
(assert (not (= (_ bv8 8) x48)))
(assert (not (= (_ bv8 8) x58)))
(assert (not (= (_ bv8 8) x68)))
(assert (not (= (_ bv8 8) (_ bv5 8))))
(assert (not (= (_ bv8 8) x88)))
(assert (not (= (_ bv2 8) x38)))
(assert (not (= (_ bv2 8) x48)))
(assert (not (= (_ bv2 8) x58)))
(assert (not (= (_ bv2 8) x68)))
(assert (not (= (_ bv2 8) (_ bv5 8))))
(assert (not (= (_ bv2 8) x88)))
(assert (not (= x38 x48)))
(assert (not (= x38 x58)))
(assert (not (= x38 x68)))
(assert (not (= x38 (_ bv5 8))))
(assert (not (= x38 x88)))
(assert (not (= x48 x58)))
(assert (not (= x48 x68)))
(assert (not (= x48 (_ bv5 8))))
(assert (not (= x48 x88)))
(assert (not (= x58 x68)))
(assert (not (= x58 (_ bv5 8))))
(assert (not (= x58 x88)))
(assert (not (= x68 (_ bv5 8))))
(assert (not (= x68 x88)))
(assert (not (= (_ bv5 8) x88)))
(assert (not (= x00 (_ bv6 8))))
(assert (not (= x00 x02)))
(assert (not (= x00 x10)))
(assert (not (= x00 x11)))
(assert (not (= x00 (_ bv5 8))))
(assert (not (= x00 x20)))
(assert (not (= x00 (_ bv3 8))))
(assert (not (= x00 x22)))
(assert (not (= (_ bv6 8) x02)))
(assert (not (= (_ bv6 8) x10)))
(assert (not (= (_ bv6 8) x11)))
(assert (not (= (_ bv6 8) (_ bv5 8))))
(assert (not (= (_ bv6 8) x20)))
(assert (not (= (_ bv6 8) (_ bv3 8))))
(assert (not (= (_ bv6 8) x22)))
(assert (not (= x02 x10)))
(assert (not (= x02 x11)))
(assert (not (= x02 (_ bv5 8))))
(assert (not (= x02 x20)))
(assert (not (= x02 (_ bv3 8))))
(assert (not (= x02 x22)))
(assert (not (= x10 x11)))
(assert (not (= x10 (_ bv5 8))))
(assert (not (= x10 x20)))
(assert (not (= x10 (_ bv3 8))))
(assert (not (= x10 x22)))
(assert (not (= x11 (_ bv5 8))))
(assert (not (= x11 x20)))
(assert (not (= x11 (_ bv3 8))))
(assert (not (= x11 x22)))
(assert (not (= (_ bv5 8) x20)))
(assert (not (= (_ bv5 8) (_ bv3 8))))
(assert (not (= (_ bv5 8) x22)))
(assert (not (= x20 (_ bv3 8))))
(assert (not (= x20 x22)))
(assert (not (= (_ bv3 8) x22)))
(assert (not (= x03 (_ bv9 8))))
(assert (not (= x03 x05)))
(assert (not (= x03 (_ bv3 8))))
(assert (not (= x03 x14)))
(assert (not (= x03 x15)))
(assert (not (= x03 x23)))
(assert (not (= x03 x24)))
(assert (not (= x03 (_ bv7 8))))
(assert (not (= (_ bv9 8) x05)))
(assert (not (= (_ bv9 8) (_ bv3 8))))
(assert (not (= (_ bv9 8) x14)))
(assert (not (= (_ bv9 8) x15)))
(assert (not (= (_ bv9 8) x23)))
(assert (not (= (_ bv9 8) x24)))
(assert (not (= (_ bv9 8) (_ bv7 8))))
(assert (not (= x05 (_ bv3 8))))
(assert (not (= x05 x14)))
(assert (not (= x05 x15)))
(assert (not (= x05 x23)))
(assert (not (= x05 x24)))
(assert (not (= x05 (_ bv7 8))))
(assert (not (= (_ bv3 8) x14)))
(assert (not (= (_ bv3 8) x15)))
(assert (not (= (_ bv3 8) x23)))
(assert (not (= (_ bv3 8) x24)))
(assert (not (= (_ bv3 8) (_ bv7 8))))
(assert (not (= x14 x15)))
(assert (not (= x14 x23)))
(assert (not (= x14 x24)))
(assert (not (= x14 (_ bv7 8))))
(assert (not (= x15 x23)))
(assert (not (= x15 x24)))
(assert (not (= x15 (_ bv7 8))))
(assert (not (= x23 x24)))
(assert (not (= x23 (_ bv7 8))))
(assert (not (= x24 (_ bv7 8))))
(assert (not (= (_ bv5 8) (_ bv1 8))))
(assert (not (= (_ bv5 8) x08)))
(assert (not (= (_ bv5 8) (_ bv7 8))))
(assert (not (= (_ bv5 8) x17)))
(assert (not (= (_ bv5 8) (_ bv8 8))))
(assert (not (= (_ bv5 8) x26)))
(assert (not (= (_ bv5 8) x27)))
(assert (not (= (_ bv5 8) (_ bv2 8))))
(assert (not (= (_ bv1 8) x08)))
(assert (not (= (_ bv1 8) (_ bv7 8))))
(assert (not (= (_ bv1 8) x17)))
(assert (not (= (_ bv1 8) (_ bv8 8))))
(assert (not (= (_ bv1 8) x26)))
(assert (not (= (_ bv1 8) x27)))
(assert (not (= (_ bv1 8) (_ bv2 8))))
(assert (not (= x08 (_ bv7 8))))
(assert (not (= x08 x17)))
(assert (not (= x08 (_ bv8 8))))
(assert (not (= x08 x26)))
(assert (not (= x08 x27)))
(assert (not (= x08 (_ bv2 8))))
(assert (not (= (_ bv7 8) x17)))
(assert (not (= (_ bv7 8) (_ bv8 8))))
(assert (not (= (_ bv7 8) x26)))
(assert (not (= (_ bv7 8) x27)))
(assert (not (= (_ bv7 8) (_ bv2 8))))
(assert (not (= x17 (_ bv8 8))))
(assert (not (= x17 x26)))
(assert (not (= x17 x27)))
(assert (not (= x17 (_ bv2 8))))
(assert (not (= (_ bv8 8) x26)))
(assert (not (= (_ bv8 8) x27)))
(assert (not (= (_ bv8 8) (_ bv2 8))))
(assert (not (= x26 x27)))
(assert (not (= x26 (_ bv2 8))))
(assert (not (= x27 (_ bv2 8))))
(assert (not (= x30 (_ bv4 8))))
(assert (not (= x30 x32)))
(assert (not (= x30 (_ bv7 8))))
(assert (not (= x30 x41)))
(assert (not (= x30 (_ bv1 8))))
(assert (not (= x30 x50)))
(assert (not (= x30 (_ bv9 8))))
(assert (not (= x30 x52)))
(assert (not (= (_ bv4 8) x32)))
(assert (not (= (_ bv4 8) (_ bv7 8))))
(assert (not (= (_ bv4 8) x41)))
(assert (not (= (_ bv4 8) (_ bv1 8))))
(assert (not (= (_ bv4 8) x50)))
(assert (not (= (_ bv4 8) (_ bv9 8))))
(assert (not (= (_ bv4 8) x52)))
(assert (not (= x32 (_ bv7 8))))
(assert (not (= x32 x41)))
(assert (not (= x32 (_ bv1 8))))
(assert (not (= x32 x50)))
(assert (not (= x32 (_ bv9 8))))
(assert (not (= x32 x52)))
(assert (not (= (_ bv7 8) x41)))
(assert (not (= (_ bv7 8) (_ bv1 8))))
(assert (not (= (_ bv7 8) x50)))
(assert (not (= (_ bv7 8) (_ bv9 8))))
(assert (not (= (_ bv7 8) x52)))
(assert (not (= x41 (_ bv1 8))))
(assert (not (= x41 x50)))
(assert (not (= x41 (_ bv9 8))))
(assert (not (= x41 x52)))
(assert (not (= (_ bv1 8) x50)))
(assert (not (= (_ bv1 8) (_ bv9 8))))
(assert (not (= (_ bv1 8) x52)))
(assert (not (= x50 (_ bv9 8))))
(assert (not (= x50 x52)))
(assert (not (= (_ bv9 8) x52)))
(assert (not (= (_ bv8 8) x34)))
(assert (not (= (_ bv8 8) (_ bv5 8))))
(assert (not (= (_ bv8 8) (_ bv6 8))))
(assert (not (= (_ bv8 8) x44)))
(assert (not (= (_ bv8 8) x45)))
(assert (not (= (_ bv8 8) x53)))
(assert (not (= (_ bv8 8) (_ bv4 8))))
(assert (not (= (_ bv8 8) x55)))
(assert (not (= x34 (_ bv5 8))))
(assert (not (= x34 (_ bv6 8))))
(assert (not (= x34 x44)))
(assert (not (= x34 x45)))
(assert (not (= x34 x53)))
(assert (not (= x34 (_ bv4 8))))
(assert (not (= x34 x55)))
(assert (not (= (_ bv5 8) (_ bv6 8))))
(assert (not (= (_ bv5 8) x44)))
(assert (not (= (_ bv5 8) x45)))
(assert (not (= (_ bv5 8) x53)))
(assert (not (= (_ bv5 8) (_ bv4 8))))
(assert (not (= (_ bv5 8) x55)))
(assert (not (= (_ bv6 8) x44)))
(assert (not (= (_ bv6 8) x45)))
(assert (not (= (_ bv6 8) x53)))
(assert (not (= (_ bv6 8) (_ bv4 8))))
(assert (not (= (_ bv6 8) x55)))
(assert (not (= x44 x45)))
(assert (not (= x44 x53)))
(assert (not (= x44 (_ bv4 8))))
(assert (not (= x44 x55)))
(assert (not (= x45 x53)))
(assert (not (= x45 (_ bv4 8))))
(assert (not (= x45 x55)))
(assert (not (= x53 (_ bv4 8))))
(assert (not (= x53 x55)))
(assert (not (= (_ bv4 8) x55)))
(assert (not (= (_ bv1 8) x37)))
(assert (not (= (_ bv1 8) x38)))
(assert (not (= (_ bv1 8) (_ bv2 8))))
(assert (not (= (_ bv1 8) x47)))
(assert (not (= (_ bv1 8) x48)))
(assert (not (= (_ bv1 8) x56)))
(assert (not (= (_ bv1 8) (_ bv3 8))))
(assert (not (= (_ bv1 8) x58)))
(assert (not (= x37 x38)))
(assert (not (= x37 (_ bv2 8))))
(assert (not (= x37 x47)))
(assert (not (= x37 x48)))
(assert (not (= x37 x56)))
(assert (not (= x37 (_ bv3 8))))
(assert (not (= x37 x58)))
(assert (not (= x38 (_ bv2 8))))
(assert (not (= x38 x47)))
(assert (not (= x38 x48)))
(assert (not (= x38 x56)))
(assert (not (= x38 (_ bv3 8))))
(assert (not (= x38 x58)))
(assert (not (= (_ bv2 8) x47)))
(assert (not (= (_ bv2 8) x48)))
(assert (not (= (_ bv2 8) x56)))
(assert (not (= (_ bv2 8) (_ bv3 8))))
(assert (not (= (_ bv2 8) x58)))
(assert (not (= x47 x48)))
(assert (not (= x47 x56)))
(assert (not (= x47 (_ bv3 8))))
(assert (not (= x47 x58)))
(assert (not (= x48 x56)))
(assert (not (= x48 (_ bv3 8))))
(assert (not (= x48 x58)))
(assert (not (= x56 (_ bv3 8))))
(assert (not (= x56 x58)))
(assert (not (= (_ bv3 8) x58)))
(assert (not (= x60 (_ bv5 8))))
(assert (not (= x60 (_ bv4 8))))
(assert (not (= x60 (_ bv2 8))))
(assert (not (= x60 x71)))
(assert (not (= x60 x72)))
(assert (not (= x60 (_ bv3 8))))
(assert (not (= x60 x81)))
(assert (not (= x60 x82)))
(assert (not (= (_ bv5 8) (_ bv4 8))))
(assert (not (= (_ bv5 8) (_ bv2 8))))
(assert (not (= (_ bv5 8) x71)))
(assert (not (= (_ bv5 8) x72)))
(assert (not (= (_ bv5 8) (_ bv3 8))))
(assert (not (= (_ bv5 8) x81)))
(assert (not (= (_ bv5 8) x82)))
(assert (not (= (_ bv4 8) (_ bv2 8))))
(assert (not (= (_ bv4 8) x71)))
(assert (not (= (_ bv4 8) x72)))
(assert (not (= (_ bv4 8) (_ bv3 8))))
(assert (not (= (_ bv4 8) x81)))
(assert (not (= (_ bv4 8) x82)))
(assert (not (= (_ bv2 8) x71)))
(assert (not (= (_ bv2 8) x72)))
(assert (not (= (_ bv2 8) (_ bv3 8))))
(assert (not (= (_ bv2 8) x81)))
(assert (not (= (_ bv2 8) x82)))
(assert (not (= x71 x72)))
(assert (not (= x71 (_ bv3 8))))
(assert (not (= x71 x81)))
(assert (not (= x71 x82)))
(assert (not (= x72 (_ bv3 8))))
(assert (not (= x72 x81)))
(assert (not (= x72 x82)))
(assert (not (= (_ bv3 8) x81)))
(assert (not (= (_ bv3 8) x82)))
(assert (not (= x81 x82)))
(assert (not (= x63 (_ bv7 8))))
(assert (not (= x63 (_ bv3 8))))
(assert (not (= x63 (_ bv1 8))))
(assert (not (= x63 x74)))
(assert (not (= x63 x75)))
(assert (not (= x63 x83)))
(assert (not (= x63 (_ bv6 8))))
(assert (not (= x63 (_ bv2 8))))
(assert (not (= (_ bv7 8) (_ bv3 8))))
(assert (not (= (_ bv7 8) (_ bv1 8))))
(assert (not (= (_ bv7 8) x74)))
(assert (not (= (_ bv7 8) x75)))
(assert (not (= (_ bv7 8) x83)))
(assert (not (= (_ bv7 8) (_ bv6 8))))
(assert (not (= (_ bv7 8) (_ bv2 8))))
(assert (not (= (_ bv3 8) (_ bv1 8))))
(assert (not (= (_ bv3 8) x74)))
(assert (not (= (_ bv3 8) x75)))
(assert (not (= (_ bv3 8) x83)))
(assert (not (= (_ bv3 8) (_ bv6 8))))
(assert (not (= (_ bv3 8) (_ bv2 8))))
(assert (not (= (_ bv1 8) x74)))
(assert (not (= (_ bv1 8) x75)))
(assert (not (= (_ bv1 8) x83)))
(assert (not (= (_ bv1 8) (_ bv6 8))))
(assert (not (= (_ bv1 8) (_ bv2 8))))
(assert (not (= x74 x75)))
(assert (not (= x74 x83)))
(assert (not (= x74 (_ bv6 8))))
(assert (not (= x74 (_ bv2 8))))
(assert (not (= x75 x83)))
(assert (not (= x75 (_ bv6 8))))
(assert (not (= x75 (_ bv2 8))))
(assert (not (= x83 (_ bv6 8))))
(assert (not (= x83 (_ bv2 8))))
(assert (not (= (_ bv6 8) (_ bv2 8))))
(assert (not (= (_ bv6 8) x67)))
(assert (not (= (_ bv6 8) x68)))
(assert (not (= (_ bv6 8) x76)))
(assert (not (= (_ bv6 8) (_ bv9 8))))
(assert (not (= (_ bv6 8) (_ bv5 8))))
(assert (not (= (_ bv6 8) (_ bv4 8))))
(assert (not (= (_ bv6 8) x87)))
(assert (not (= (_ bv6 8) x88)))
(assert (not (= x67 x68)))
(assert (not (= x67 x76)))
(assert (not (= x67 (_ bv9 8))))
(assert (not (= x67 (_ bv5 8))))
(assert (not (= x67 (_ bv4 8))))
(assert (not (= x67 x87)))
(assert (not (= x67 x88)))
(assert (not (= x68 x76)))
(assert (not (= x68 (_ bv9 8))))
(assert (not (= x68 (_ bv5 8))))
(assert (not (= x68 (_ bv4 8))))
(assert (not (= x68 x87)))
(assert (not (= x68 x88)))
(assert (not (= x76 (_ bv9 8))))
(assert (not (= x76 (_ bv5 8))))
(assert (not (= x76 (_ bv4 8))))
(assert (not (= x76 x87)))
(assert (not (= x76 x88)))
(assert (not (= (_ bv9 8) (_ bv5 8))))
(assert (not (= (_ bv9 8) (_ bv4 8))))
(assert (not (= (_ bv9 8) x87)))
(assert (not (= (_ bv9 8) x88)))
(assert (not (= (_ bv5 8) (_ bv4 8))))
(assert (not (= (_ bv5 8) x87)))
(assert (not (= (_ bv5 8) x88)))
(assert (not (= (_ bv4 8) x87)))
(assert (not (= (_ bv4 8) x88)))
(assert (not (= x87 x88)))
(check-sat)
(exit)
